benchmarks/bfuzz0/7019166202529115595314423759154124965.smt2
(set-logic QF_FP)
(declare-const x0 (_ FloatingPoint 8 24))
(declare-const x1 (_ FloatingPoint 8 24))
(declare-const x2 (_ FloatingPoint 8 24))
(declare-const x3 (_ FloatingPoint 8 24))
(declare-const x4 (_ FloatingPoint 8 24))
(declare-const x5 (_ FloatingPoint 8 24))
(declare-const x6 (_ FloatingPoint 8 24))
(declare-const x7 (_ FloatingPoint 8 24))
(assert (fp.geq (fp.neg x6) (fp.mul RNE x3 x0)))
(assert (fp.leq (fp.neg x5) (fp.div RNE x1 x1)))
(assert (fp.gt (fp.div RNE x0 x7) (fp.add RNE x2 x4)))
(assert (fp.geq (fp.mul RNE x5 x2) (fp.div RNE x6 x7)))
(assert (fp.geq (fp.sub RNE x2 x0) (fp.sub RNE x4 x3)))
(assert (fp.lt (fp.mul RNE x2 x6) (fp.add RNE x1 x2)))
(assert (fp.gt (fp.add RNE x5 x5) (fp.add RNE x1 x0)))
(check-sat)
