db/data/7019166202529115595314423759154124965.z3.out
sat
-------------------
16.145273905
